p cnf 18 20
-1 16 -17 0 
-2 3 4 5 8 9 10 11 12 16 -17 0 
-3 2 4 5 8 9 10 11 12 16 -17 0 
-1 17 -16 0 
-4 2 3 5 8 9 10 11 12 17 -16 0 
-2 3 4 5 8 9 10 11 12 17 -16 0 
-5 2 3 4 8 9 10 11 12 17 -16 0 
-6 -7 18 0 
-8 2 3 4 5 9 10 11 12 16 -17 0 
-9 2 3 4 5 8 10 11 12 16 -17 0 
-10 2 3 4 5 8 9 11 12 16 -17 0 
-11 2 3 4 5 8 9 10 12 16 -17 0 
-5 2 3 4 8 9 10 11 12 16 -17 0 
-9 2 3 4 5 8 10 11 12 17 -16 0 
-12 2 3 4 5 8 9 10 11 16 -17 0 
-13 14 15 16 -17 0 
-14 13 15 16 -17 0 
-15 13 14 16 -17 0 
-3 2 4 5 8 9 10 11 12 17 -16 0 
-4 2 3 5 8 9 10 11 12 16 -17 0 
